           1           10           1
0.0000000E+00      -0.762        0.0000000E+00        0.762             0.0000000E+00        0.0000000E+00      -0.762        0.0000000E+00        0.762              0.0000000E+00
-1.31982272      -1.31982272      -1.524000          -1.31982272        -1.31982272             1.31982272      1.31982272      1.524000          1.31982272          1.31982272    
-0.762           0.0000000E+00   0.0000000E+00        0.0000000E+00       0.762            -0.762           0.0000000E+00   0.0000000E+00        0.0000000E+00        0.762   
